CPXPARAM_Read_DataCheck                          1
Found incumbent of value 0.000000 after 0.00 sec. (0.03 ticks)
Tried aggregator 1 time.
MIP Presolve modified 1 coefficients.
Reduced MIP has 133 rows, 1010 columns, and 5034 nonzeros.
Reduced MIP has 1010 binaries, 0 generals, 0 SOSs, and 0 indicators.
Presolve time = 0.00 sec. (2.08 ticks)
Probing time = 0.00 sec. (2.44 ticks)
Tried aggregator 1 time.
Reduced MIP has 133 rows, 1010 columns, and 5034 nonzeros.
Reduced MIP has 1010 binaries, 0 generals, 0 SOSs, and 0 indicators.
Presolve time = 0.02 sec. (2.44 ticks)
Probing time = 0.00 sec. (2.42 ticks)
Clique table members: 3353.
MIP emphasis: balance optimality and feasibility.
MIP search method: dynamic search.
Parallel mode: deterministic, using up to 4 threads.
Root relaxation solution time = 0.00 sec. (3.15 ticks)

        Nodes                                         Cuts/
   Node  Left     Objective  IInf  Best Integer    Best Bound    ItCnt     Gap

*     0+    0                            0.0000     6288.0000              --- 
*     0+    0                         1248.0000     6288.0000           403.85%
*     0+    0                         1252.0000     6288.0000           402.24%
      0     0     1745.2800    14     1252.0000     1745.2800      203   39.40%
      0     0     1456.5398   152     1252.0000     Cuts: 142      425   16.34%
      0     0     1385.5031   211     1252.0000     Cuts: 133      571   10.66%
      0     0     1377.0777   220     1252.0000      Cuts: 72      654    9.99%
      0     0     1375.6834   113     1252.0000      Cuts: 35      700    9.88%
*     0+    0                         1356.0000     1375.6834             1.45%
*     0+    0                         1365.0000     1375.6834             0.78%
      0     0     1375.1453   159     1365.0000      Cuts: 22      743    0.74%
      0     0     1374.6413   201     1365.0000      Cuts: 14      774    0.71%
      0     0     1374.3571   189     1365.0000      Cuts: 19      790    0.69%
      0     0     1374.2469   187     1365.0000      Cuts: 12      808    0.68%
      0     0     1373.9735   160     1365.0000      Cuts: 20      836    0.66%
      0     0     1373.7562   165     1365.0000      Cuts: 17      858    0.64%
      0     0     1373.5741   190     1365.0000      Cuts: 14      888    0.63%
*     0+    0                         1367.0000     1373.5741             0.48%
*     0+    0                         1369.0000     1373.5741             0.33%
      0     0        cutoff           1369.0000     1369.0000      888    0.00%
Elapsed time = 0.39 sec. (174.80 ticks, tree = 0.01 MB, solutions = 7)

Clique cuts applied:  131
Cover cuts applied:  15
Implied bound cuts applied:  18
Flow cuts applied:  3
Mixed integer rounding cuts applied:  5
Zero-half cuts applied:  8

Root node processing (before b&c):
  Real time             =    0.39 sec. (174.91 ticks)
Parallel b&c, 4 threads:
  Real time             =    0.00 sec. (0.00 ticks)
  Sync time (average)   =    0.00 sec.
  Wait time (average)   =    0.00 sec.
                          ------------
Total (root+branch&cut) =    0.39 sec. (174.91 ticks)
